
n_res = 8;
rcap = [33, 41, 40, 41, 677, 618, 618, 714];
rtype = [1, 1, 1, 1, 2, 2, 2, 2];
n_tasks = 50;
modes =  [{1, 2, 3, 4, 5, 6}, {7, 8, 9, 10, 11, 12}, {13, 14, 15, 16, 17, 18}, {19, 20, 21, 22, 23, 24}, {25, 26, 27, 28, 29, 30}, {31, 32, 33, 34, 35, 36}, {37, 38, 39, 40, 41, 42}, {43, 44, 45, 46, 47, 48}, {49, 50, 51, 52, 53, 54}, {55, 56, 57, 58, 59, 60}, {61, 62, 63, 64, 65, 66}, {67, 68, 69, 70, 71, 72}, {73, 74, 75, 76, 77, 78}, {79, 80, 81, 82, 83, 84}, {85, 86, 87, 88, 89, 90}, {91, 92, 93, 94, 95, 96}, {97, 98, 99, 100, 101, 102}, {103, 104, 105, 106, 107, 108}, {109, 110, 111, 112, 113, 114}, {115, 116, 117, 118, 119, 120}, {121, 122, 123, 124, 125, 126}, {127, 128, 129, 130, 131, 132}, {133, 134, 135, 136, 137, 138}, {139, 140, 141, 142, 143, 144}, {145, 146, 147, 148, 149, 150}, {151, 152, 153, 154, 155, 156}, {157, 158, 159, 160, 161, 162}, {163, 164, 165, 166, 167, 168}, {169, 170, 171, 172, 173, 174}, {175, 176, 177, 178, 179, 180}, {181, 182, 183, 184, 185, 186}, {187, 188, 189, 190, 191, 192}, {193, 194, 195, 196, 197, 198}, {199, 200, 201, 202, 203, 204}, {205, 206, 207, 208, 209, 210}, {211, 212, 213, 214, 215, 216}, {217, 218, 219, 220, 221, 222}, {223, 224, 225, 226, 227, 228}, {229, 230, 231, 232, 233, 234}, {235, 236, 237, 238, 239, 240}, {241, 242, 243, 244, 245, 246}, {247, 248, 249, 250, 251, 252}, {253, 254, 255, 256, 257, 258}, {259, 260, 261, 262, 263, 264}, {265, 266, 267, 268, 269, 270}, {271, 272, 273, 274, 275, 276}, {277, 278, 279, 280, 281, 282}, {283, 284, 285, 286, 287, 288}, {289, 290, 291, 292, 293, 294}, {295, 296, 297, 298, 299, 300}];
succ =  [{50, 49, 48, 46, 33, 30, 29, 23, 22, 19, 11, 10, 9}, {49, 31, 26, 13, 10, 3}, {48, 44, 33, 32, 30, 29, 28, 19, 18, 17, 16}, {41, 39, 31, 30, 29, 28, 25, 23, 22, 18, 14}, {48, 45, 38, 31, 29, 28, 26, 25, 20, 17, 16}, {44, 33, 30, 29, 28, 27, 25, 23, 19, 16}, {46, 45, 44, 36, 32, 30, 23, 18, 16}, {47, 45, 34, 31, 28, 25, 20}, {44, 40, 38, 32, 25, 16}, {47, 44, 41, 39, 38, 37, 36, 35, 34, 28}, {47, 45, 42, 39, 38, 36, 31, 27}, {48, 43, 42, 37, 23}, {47, 41, 30, 23}, {46, 45, 44, 37, 36, 35, 34}, {42, 41, 36, 35, 29, 27}, {43, 42, 41, 39, 37, 35}, {46, 40, 39, 37, 35, 34}, {43, 42, 38, 37, 27}, {45, 40, 39, 38, 36}, {41, 39, 37, 36, 35}, {39, 38, 36, 32}, {43, 42, 38, 34}, {40, 35, 34}, {36, 35, 34}, {43, 36}, {44, 37}, {34}, {40}, {34}, {38}, {35}, {34}, {37}, {}, {}, {}, {}, {}, {}, {}, {}, {}, {}, {}, {}, {}, {}, {}, {}, {}];
n_opt = 300;
dur = [2, 6, 9, 14, 16, 22, 4, 5, 13, 19, 20, 30, 1, 19, 21, 22, 27, 28, 4, 7, 19, 24, 25, 27, 8, 10, 13, 19, 27, 30, 10, 11, 15, 16, 20, 27, 5, 8, 10, 12, 23, 24, 12, 13, 14, 18, 26, 30, 7, 10, 12, 13, 27, 30, 4, 8, 13, 14, 20, 26, 6, 13, 15, 16, 24, 26, 1, 2, 3, 16, 17, 18, 2, 9, 14, 15, 24, 30, 4, 7, 10, 11, 26, 28, 1, 14, 15, 17, 21, 28, 6, 12, 19, 22, 23, 24, 13, 19, 20, 22, 23, 26, 1, 10, 20, 24, 27, 29, 3, 4, 10, 11, 26, 28, 14, 15, 18, 26, 28, 29, 15, 16, 17, 19, 20, 22, 1, 3, 6, 11, 26, 29, 1, 23, 24, 26, 28, 29, 5, 6, 19, 21, 23, 25, 3, 20, 21, 22, 23, 24, 8, 9, 16, 17, 20, 26, 3, 15, 16, 20, 28, 30, 1, 4, 12, 17, 18, 24, 3, 8, 22, 25, 26, 29, 1, 2, 7, 19, 25, 30, 1, 3, 4, 9, 15, 30, 1, 3, 9, 18, 19, 23, 7, 10, 18, 24, 28, 30, 2, 3, 4, 11, 23, 24, 3, 13, 17, 18, 21, 29, 6, 7, 16, 20, 23, 24, 16, 21, 22, 25, 26, 28, 3, 4, 10, 14, 15, 28, 5, 7, 8, 15, 17, 23, 3, 15, 21, 22, 23, 26, 3, 6, 9, 12, 13, 22, 8, 15, 19, 27, 28, 30, 4, 9, 11, 16, 25, 26, 16, 21, 22, 24, 28, 29, 7, 12, 15, 23, 27, 28, 7, 10, 13, 21, 25, 28, 2, 10, 17, 19, 20, 24, 1, 6, 7, 12, 13, 28, 3, 9, 13, 16, 25, 30, 10, 11, 18, 26, 27, 29];
rreq = [|5, 3, 3, 3, 1, 1, 3, 2, 2, 2, 2, 2, 2, 2, 2, 2, 1, 1, 4, 4, 4, 4, 4, 4, 3, 3, 3, 3, 3, 3, 3, 3, 3, 3, 2, 2, 1, 1, 1, 1, 1, 1, 3, 3, 3, 3, 3, 3, 2, 2, 2, 2, 2, 2, 2, 2, 2, 2, 2, 2, 4, 4, 3, 3, 2, 2, 4, 4, 4, 3, 3, 2, 4, 3, 3, 3, 3, 3, 3, 3, 3, 3, 3, 3, 4, 4, 4, 4, 4, 4, 3, 3, 3, 3, 3, 3, 4, 4, 4, 3, 3, 3, 3, 3, 3, 3, 3, 3, 4, 3, 3, 2, 2, 1, 4, 3, 3, 2, 2, 2, 5, 5, 5, 5, 5, 5, 1, 1, 1, 1, 1, 1, 3, 3, 3, 3, 2, 2, 4, 4, 4, 4, 4, 4, 5, 4, 3, 3, 3, 2, 4, 4, 4, 4, 4, 4, 3, 2, 2, 2, 2, 2, 2, 2, 2, 2, 2, 2, 4, 4, 4, 4, 4, 4, 1, 1, 1, 1, 1, 1, 5, 4, 3, 3, 2, 1, 4, 4, 4, 4, 4, 4, 1, 1, 1, 1, 1, 1, 1, 1, 1, 1, 1, 1, 4, 4, 4, 4, 4, 4, 3, 3, 2, 2, 1, 1, 3, 2, 2, 2, 2, 2, 4, 4, 4, 4, 4, 4, 4, 3, 3, 2, 2, 1, 1, 1, 1, 1, 1, 1, 5, 3, 3, 3, 1, 1, 4, 4, 4, 4, 4, 4, 1, 1, 1, 1, 1, 1, 5, 3, 3, 3, 2, 1, 4, 4, 4, 4, 4, 4, 3, 3, 2, 2, 2, 1, 4, 4, 4, 4, 4, 4, 5, 4, 4, 4, 4, 4, 2, 2, 2, 2, 2, 2, 4, 3, 2, 2, 1, 1
 |4, 4, 4, 3, 3, 3, 1, 1, 1, 1, 1, 1, 4, 4, 4, 3, 3, 2, 3, 2, 2, 1, 1, 1, 4, 3, 3, 2, 1, 1, 3, 3, 2, 2, 2, 1, 3, 3, 3, 3, 3, 3, 5, 5, 5, 5, 5, 5, 4, 3, 3, 3, 3, 3, 4, 3, 3, 3, 3, 3, 4, 3, 3, 2, 2, 1, 3, 3, 3, 3, 3, 3, 5, 5, 5, 5, 5, 5, 5, 4, 4, 3, 3, 2, 3, 2, 2, 2, 2, 2, 3, 3, 3, 3, 3, 3, 5, 5, 5, 5, 5, 5, 3, 3, 3, 2, 2, 2, 4, 3, 3, 3, 3, 3, 2, 2, 2, 2, 2, 2, 2, 1, 1, 1, 1, 1, 1, 1, 1, 1, 1, 1, 4, 4, 3, 3, 3, 2, 5, 4, 4, 3, 3, 3, 1, 1, 1, 1, 1, 1, 3, 3, 3, 3, 3, 3, 4, 4, 4, 4, 4, 4, 1, 1, 1, 1, 1, 1, 3, 3, 3, 2, 2, 1, 3, 2, 2, 2, 2, 2, 3, 3, 3, 3, 3, 3, 2, 2, 2, 2, 2, 2, 3, 2, 2, 1, 1, 1, 4, 3, 2, 2, 1, 1, 5, 4, 4, 3, 3, 2, 5, 4, 4, 3, 3, 3, 2, 2, 2, 2, 2, 2, 1, 1, 1, 1, 1, 1, 5, 4, 4, 4, 3, 3, 4, 3, 3, 3, 3, 3, 2, 2, 2, 2, 2, 2, 4, 4, 4, 4, 4, 4, 4, 3, 2, 2, 1, 1, 3, 3, 2, 2, 1, 1, 4, 3, 3, 3, 3, 3, 4, 4, 4, 4, 4, 4, 2, 2, 2, 2, 1, 1, 5, 4, 3, 3, 3, 2, 1, 1, 1, 1, 1, 1, 3, 3, 3, 2, 1, 1
 |4, 4, 3, 3, 1, 1, 3, 3, 3, 3, 3, 3, 5, 4, 4, 3, 3, 3, 1, 1, 1, 1, 1, 1, 2, 2, 2, 2, 2, 2, 5, 4, 3, 2, 2, 1, 3, 3, 3, 2, 2, 2, 4, 3, 3, 3, 2, 2, 4, 4, 4, 3, 3, 3, 4, 4, 4, 4, 4, 4, 5, 4, 3, 2, 1, 1, 2, 2, 2, 2, 1, 1, 4, 3, 3, 3, 2, 1, 4, 4, 3, 2, 2, 1, 4, 3, 3, 2, 2, 2, 2, 1, 1, 1, 1, 1, 5, 4, 4, 3, 2, 2, 1, 1, 1, 1, 1, 1, 4, 4, 4, 3, 3, 2, 5, 5, 5, 5, 5, 5, 1, 1, 1, 1, 1, 1, 4, 4, 4, 4, 4, 4, 3, 3, 3, 3, 3, 3, 3, 3, 3, 3, 3, 3, 1, 1, 1, 1, 1, 1, 5, 3, 3, 3, 2, 1, 4, 4, 4, 3, 3, 3, 5, 4, 3, 3, 2, 1, 4, 4, 4, 4, 4, 4, 3, 3, 3, 3, 3, 3, 5, 3, 3, 2, 1, 1, 3, 3, 3, 3, 3, 3, 2, 2, 2, 2, 2, 2, 2, 2, 2, 2, 2, 2, 3, 2, 2, 2, 1, 1, 5, 4, 4, 3, 3, 3, 3, 3, 3, 2, 2, 1, 3, 2, 2, 2, 1, 1, 5, 4, 3, 3, 1, 1, 5, 5, 5, 5, 5, 5, 3, 3, 3, 3, 3, 3, 1, 1, 1, 1, 1, 1, 3, 3, 3, 3, 2, 2, 3, 3, 2, 2, 2, 1, 2, 2, 2, 2, 2, 2, 5, 4, 3, 3, 3, 2, 4, 4, 4, 4, 4, 4, 1, 1, 1, 1, 1, 1, 1, 1, 1, 1, 1, 1, 3, 2, 2, 2, 1, 1
 |4, 3, 3, 2, 2, 2, 3, 3, 3, 2, 1, 1, 3, 2, 2, 1, 1, 1, 4, 4, 4, 3, 3, 2, 2, 2, 2, 2, 2, 2, 4, 4, 4, 4, 4, 4, 5, 5, 5, 5, 5, 5, 4, 4, 4, 4, 4, 4, 2, 2, 2, 2, 2, 2, 5, 4, 3, 2, 2, 1, 3, 3, 2, 2, 1, 1, 5, 4, 4, 3, 3, 3, 2, 2, 2, 2, 2, 2, 4, 3, 3, 3, 3, 3, 3, 2, 2, 2, 1, 1, 4, 4, 3, 3, 2, 2, 4, 3, 2, 2, 1, 1, 4, 3, 3, 2, 2, 1, 2, 2, 2, 2, 2, 2, 4, 4, 4, 4, 3, 3, 4, 3, 3, 3, 2, 2, 3, 3, 3, 2, 1, 1, 4, 3, 3, 3, 3, 3, 4, 4, 4, 4, 4, 4, 2, 2, 2, 2, 1, 1, 2, 1, 1, 1, 1, 1, 3, 3, 3, 3, 3, 3, 5, 4, 4, 4, 3, 3, 5, 3, 3, 3, 1, 1, 4, 3, 3, 3, 2, 2, 4, 3, 3, 2, 2, 1, 2, 2, 2, 2, 2, 2, 5, 4, 3, 3, 2, 2, 3, 3, 2, 2, 1, 1, 1, 1, 1, 1, 1, 1, 4, 4, 4, 4, 3, 3, 5, 4, 4, 4, 3, 3, 3, 3, 3, 3, 3, 3, 5, 3, 3, 2, 2, 1, 5, 4, 4, 4, 4, 4, 5, 4, 3, 3, 3, 2, 2, 2, 2, 2, 2, 2, 5, 5, 5, 5, 5, 5, 4, 3, 2, 2, 2, 1, 5, 4, 4, 3, 2, 2, 5, 4, 4, 3, 3, 3, 3, 2, 2, 2, 1, 1, 2, 1, 1, 1, 1, 1, 5, 3, 3, 3, 1, 1, 4, 4, 3, 3, 2, 1
 |3, 3, 3, 3, 2, 2, 24, 21, 18, 11, 10, 6, 25, 20, 15, 11, 11, 6, 26, 22, 17, 16, 12, 10, 24, 22, 21, 20, 19, 19, 27, 26, 25, 25, 24, 24, 21, 21, 21, 21, 21, 21, 24, 22, 20, 20, 19, 18, 14, 13, 12, 10, 10, 9, 20, 19, 16, 11, 10, 8, 20, 20, 20, 20, 20, 20, 28, 27, 27, 26, 26, 25, 26, 25, 17, 13, 9, 5, 27, 23, 20, 17, 14, 11, 27, 26, 24, 23, 23, 22, 4, 3, 3, 3, 3, 3, 9, 6, 5, 4, 3, 2, 3, 3, 3, 3, 3, 3, 24, 23, 21, 21, 20, 18, 18, 16, 16, 15, 14, 12, 27, 21, 18, 15, 10, 10, 15, 12, 12, 9, 8, 4, 17, 17, 14, 13, 9, 8, 19, 15, 14, 11, 8, 5, 27, 23, 19, 16, 11, 6, 20, 18, 16, 16, 12, 10, 25, 22, 18, 15, 13, 10, 20, 16, 12, 11, 7, 2, 16, 12, 9, 7, 3, 2, 12, 10, 10, 8, 7, 7, 27, 24, 22, 17, 12, 12, 27, 26, 25, 22, 21, 20, 20, 16, 16, 13, 6, 4, 21, 19, 19, 16, 13, 13, 23, 22, 20, 18, 15, 10, 11, 10, 8, 5, 4, 2, 21, 21, 20, 20, 19, 18, 28, 23, 23, 21, 16, 14, 30, 29, 29, 29, 29, 29, 28, 27, 27, 27, 27, 27, 19, 16, 14, 14, 13, 11, 25, 23, 23, 20, 20, 18, 23, 20, 20, 18, 17, 16, 14, 14, 14, 14, 13, 13, 23, 19, 15, 12, 11, 6, 11, 9, 7, 6, 5, 4, 26, 24, 22, 20, 16, 15, 14, 13, 12, 11, 10, 8, 22, 20, 19, 14, 12, 11, 11, 11, 10, 9, 7, 6
 |24, 18, 17, 11, 8, 3, 18, 15, 14, 10, 8, 8, 27, 27, 27, 27, 27, 27, 11, 10, 9, 8, 8, 6, 7, 6, 6, 4, 3, 2, 16, 12, 12, 7, 5, 4, 13, 11, 10, 8, 5, 5, 20, 19, 18, 17, 16, 15, 29, 27, 25, 24, 23, 21, 22, 19, 17, 16, 12, 12, 16, 15, 13, 10, 9, 8, 24, 24, 23, 22, 21, 21, 22, 22, 22, 22, 22, 22, 24, 24, 23, 23, 22, 21, 6, 6, 6, 6, 6, 6, 15, 14, 14, 14, 13, 13, 25, 21, 16, 10, 9, 3, 18, 18, 16, 15, 13, 10, 15, 15, 15, 15, 15, 15, 16, 13, 11, 8, 4, 2, 18, 14, 12, 11, 7, 5, 11, 11, 10, 10, 10, 9, 19, 19, 17, 16, 15, 12, 18, 16, 15, 15, 14, 12, 19, 17, 15, 12, 10, 7, 19, 17, 14, 11, 8, 5, 14, 13, 12, 11, 8, 7, 12, 11, 11, 10, 9, 9, 11, 10, 9, 8, 6, 5, 22, 22, 20, 20, 18, 17, 19, 17, 14, 13, 11, 11, 20, 20, 19, 18, 17, 17, 23, 21, 19, 19, 17, 13, 16, 14, 13, 13, 12, 10, 28, 27, 23, 22, 17, 14, 4, 3, 3, 3, 2, 2, 20, 18, 13, 10, 8, 6, 27, 26, 23, 21, 19, 16, 15, 13, 13, 11, 10, 10, 18, 18, 18, 18, 17, 17, 12, 12, 12, 12, 11, 11, 17, 16, 12, 10, 8, 5, 18, 18, 18, 17, 17, 16, 18, 15, 14, 10, 6, 4, 3, 2, 2, 2, 2, 2, 29, 26, 22, 20, 19, 14, 16, 14, 13, 10, 9, 5, 16, 15, 13, 12, 12, 11, 24, 21, 18, 15, 11, 10, 23, 23, 22, 22, 20, 20
 |27, 23, 17, 12, 10, 5, 16, 15, 14, 14, 12, 12, 13, 13, 13, 12, 11, 11, 15, 13, 12, 10, 10, 9, 13, 11, 10, 9, 9, 8, 24, 21, 19, 18, 15, 11, 22, 22, 21, 21, 20, 20, 15, 11, 10, 8, 6, 1, 22, 19, 18, 14, 12, 12, 25, 20, 17, 16, 13, 10, 9, 7, 5, 5, 3, 1, 13, 12, 12, 11, 10, 10, 17, 16, 15, 14, 12, 12, 21, 19, 18, 18, 17, 16, 18, 15, 14, 11, 11, 9, 26, 25, 25, 24, 23, 23, 2, 1, 1, 1, 1, 1, 27, 26, 26, 24, 24, 22, 21, 20, 14, 11, 7, 4, 15, 12, 11, 11, 7, 7, 29, 27, 25, 24, 22, 21, 10, 9, 9, 7, 6, 5, 26, 22, 21, 18, 17, 14, 21, 17, 11, 8, 6, 2, 17, 17, 16, 15, 13, 13, 15, 14, 12, 11, 10, 10, 12, 10, 10, 8, 4, 4, 9, 8, 7, 6, 5, 5, 3, 3, 2, 2, 1, 1, 24, 23, 21, 20, 20, 18, 29, 25, 25, 23, 20, 16, 25, 23, 20, 18, 13, 11, 12, 11, 11, 10, 10, 10, 20, 19, 15, 12, 12, 8, 28, 24, 21, 17, 13, 13, 22, 16, 14, 11, 7, 4, 27, 23, 21, 16, 12, 11, 13, 13, 13, 13, 12, 12, 19, 18, 17, 15, 13, 13, 23, 21, 17, 15, 14, 10, 11, 10, 10, 9, 8, 6, 13, 12, 11, 9, 5, 4, 9, 9, 9, 9, 9, 9, 6, 6, 4, 3, 3, 1, 29, 29, 29, 29, 29, 29, 28, 23, 21, 21, 17, 16, 17, 15, 15, 14, 13, 13, 19, 17, 14, 10, 6, 2, 15, 15, 15, 15, 15, 15, 23, 22, 21, 21, 20, 20
 |17, 15, 15, 14, 13, 13, 26, 23, 19, 16, 9, 9, 19, 19, 18, 18, 17, 16, 20, 19, 17, 16, 15, 15, 25, 21, 20, 17, 16, 14, 20, 19, 17, 16, 16, 15, 18, 15, 12, 10, 7, 6, 9, 7, 6, 4, 4, 2, 12, 11, 11, 11, 11, 11, 25, 22, 21, 19, 18, 17, 30, 25, 22, 19, 15, 15, 15, 12, 9, 7, 5, 2, 25, 22, 21, 19, 16, 15, 15, 14, 14, 13, 11, 9, 22, 16, 16, 12, 10, 6, 22, 21, 17, 17, 14, 10, 25, 25, 21, 17, 16, 12, 23, 23, 19, 16, 16, 12, 22, 19, 15, 14, 10, 7, 14, 11, 8, 6, 5, 3, 14, 11, 10, 7, 3, 1, 28, 27, 24, 24, 23, 20, 27, 24, 23, 22, 19, 19, 9, 8, 7, 7, 5, 5, 26, 26, 26, 26, 26, 26, 18, 16, 16, 15, 13, 13, 12, 11, 11, 10, 9, 9, 5, 4, 3, 3, 2, 2, 29, 28, 28, 28, 28, 28, 17, 16, 15, 15, 13, 13, 13, 13, 13, 13, 13, 13, 15, 15, 11, 9, 8, 5, 18, 18, 17, 16, 14, 14, 27, 24, 17, 15, 6, 6, 24, 23, 23, 22, 19, 18, 27, 27, 26, 26, 26, 25, 10, 9, 8, 8, 7, 6, 18, 15, 13, 12, 12, 9, 21, 21, 20, 17, 17, 16, 21, 20, 18, 17, 16, 16, 25, 25, 25, 25, 25, 25, 19, 19, 17, 16, 15, 15, 29, 27, 25, 23, 22, 20, 12, 12, 12, 11, 10, 10, 20, 19, 17, 16, 15, 12, 23, 19, 14, 11, 8, 6, 16, 14, 10, 6, 6, 3, 27, 27, 26, 26, 26, 25, 28, 26, 25, 25, 24, 22, 14, 13, 13, 11, 9, 9|];